1 -1 2 0
1 -1 -3 0
1 4 5 0
1 4 6 0
1 -4 -7 0
1 -8 -9 0
1 8 -10 0
1 -8 11 0
1 -3 12 0
1 3 1 0
1 -3 -13 0
1 -13 14 0
1 13 -4 0
1 9 15 0
1 -9 16 0
1 -11 2 0
1 11 -4 0
1 11 1 0
1 -17 5 0
1 -18 5 0
1 18 17 0
1 14 3 0
1 19 20 0
1 -19 3 0
1 -19 10 0
1 -19 -21 0
1 -10 -22 0
1 -10 23 0
1 -5 24 0
1 -5 -10 0
1 5 17 0
1 6 -19 0
1 -6 8 0
1 6 -25 0
1 26 27 0
1 -26 -25 0
1 -23 22 0
1 23 10 0
1 22 20 0
1 22 10 0
1 -28 -29 0
1 -24 -20 0
1 -24 10 0
1 -21 22 0
1 -21 -29 0
1 -21 23 0
1 29 19 0
1 -29 23 0
1 -29 14 0
1 30 19 0
1 -30 31 0
1 -30 32 0
1 20 24 0
1 20 19 0
1 -20 -27 0
1 -20 -23 0
1 20 -14 0
1 20 -33 0
1 -20 34 0
1 7 -35 0
1 -7 -36 0
1 -37 -38 0
1 -39 40 0
1 39 7 0
1 -41 42 0
1 38 -37 0
1 -38 -43 0
1 38 -7 0
1 43 38 0
1 16 39 0
1 -16 -40 0
1 -16 -36 0
1 16 44 0
1 -40 9 0
1 -40 44 0
1 45 -46 0
1 45 -35 0
1 -45 -44 0
1 -46 -39 0
1 -46 47 0
1 46 9 0
1 -46 36 0
1 48 49 0
1 44 12 0
1 -35 -7 0
1 36 46 0
1 -12 49 0
1 12 -47 0
1 49 50 0
1 25 -26 0
1 25 -51 0
1 25 44 0
1 52 47 0
1 -52 44 0
1 -50 49 0
1 -50 -53 0
1 -50 31 0
1 -50 -54 0
1 -55 -46 0
1 47 56 0
1 47 -57 0
1 -57 58 0
1 -57 46 0
1 -57 -53 0
1 57 59 0
1 -57 60 0
1 -57 25 0
1 -57 45 0
1 -27 -61 0
1 -27 -55 0
1 -27 62 0
1 62 20 0
1 -62 -50 0
1 -62 51 0
1 31 -30 0
1 34 63 0
1 51 64 0
1 51 -65 0
1 -61 -66 0
1 61 -27 0
1 -61 -34 0
1 -15 -53 0
1 -15 25 0
1 15 -67 0
1 63 31 0
1 -66 68 0
1 66 -30 0
1 33 61 0
1 -33 -29 0
1 -69 -65 0
1 -69 -70 0
1 -65 61 0
1 -65 32 0
1 70 -33 0
1 -71 33 0
1 68 72 0
1 68 -64 0
1 -72 -73 0
1 72 64 0
1 72 74 0
1 -72 -67 0
1 72 65 0
1 -72 -33 0
1 -75 -76 0
1 77 -76 0
1 78 -74 0
1 -76 77 0
1 -76 -79 0
1 -76 -65 0
1 -80 -75 0
1 80 -65 0
1 -32 -30 0
1 -81 77 0
1 81 75 0
1 -60 -36 0
1 59 -47 0
1 -59 82 0
1 -83 -84 0
1 83 -85 0
1 86 -39 0
1 -87 -59 0
1 87 -83 0
1 -88 59 0
1 85 -43 0
1 85 -83 0
1 -53 -86 0
1 53 87 0
1 53 89 0
1 -54 84 0
1 -54 -53 0
1 54 -15 0
1 54 -82 0
1 90 -91 0
1 90 -92 0
1 -90 63 0
1 93 -91 0
1 93 -82 0
1 -93 -94 0
1 93 -92 0
1 84 48 0
1 84 -90 0
1 84 67 0
1 84 54 0
1 82 90 0
1 82 -67 0
1 95 -93 0
1 -95 -54 0
1 -64 -72 0
1 -64 79 0
1 -64 -84 0
1 64 -56 0
1 -64 51 0
1 -64 -63 0
1 -67 75 0
1 73 77 0
1 -73 -74 0
1 73 -92 0
1 74 73 0
1 -74 -84 0
1 -74 -56 0
1 74 -68 0
1 -74 -82 0
1 -74 -92 0
1 -91 -67 0
1 -92 67 0
1 -56 -94 0
1 -56 47 0
1 -56 67 0
1 -94 90 0
